(set-logic ALL)
(declare-fun i1 () Int)
(declare-fun i7 () Int)
(declare-fun i3 () Int)
(declare-fun it1 () Int)
(declare-fun it2 () Int)
(declare-fun i2 () Int)
(declare-fun it3 () Int)
(declare-fun it4 () Int)
(declare-fun i4 () Int)
(declare-fun it5 () Int)
(declare-fun i5 () Int)
(declare-fun it6 () Int)
(declare-fun i6 () Int)
(declare-fun it7 () Int)
(declare-fun it190 () Int)
(declare-fun it160 () Int)
(declare-fun it81 () Int)
(declare-fun it193 () Int)
(declare-fun it194 () Int)
(declare-fun it195 () Int)
(declare-fun it196 () Int)
(declare-fun it197 () Int)
(declare-fun it198 () Int)
(declare-fun it199 () Int)
(declare-fun it202 () Int)
(declare-fun it218 () Int)
(declare-fun it219 () Int)
(declare-fun it220 () Int)
(declare-fun it221 () Int)
(declare-fun it222 () Int)
(declare-fun it223 () Int)
(declare-fun it224 () Int)
(declare-fun it201 () Int)
(declare-fun it255 () Int)
(declare-fun it256 () Int)
(declare-fun it257 () Int)
(declare-fun it258 () Int)
(declare-fun it259 () Int)
(declare-fun it260 () Int)
(declare-fun it261 () Int)
(assert (and (> i3 0) (> i7 0) (= (+ i1 (- 1)) 0)))
(assert (= (+ it1 (- 2)) 0))
(assert (= (+ (* i2 (- 1)) it2 (- 1)) 0))
(assert (= (+ (* i3 (- 1)) it3) 0))
(assert (= (+ (* i4 (- 1)) it4) 0))
(assert (= (+ (* i5 (- 1)) it5) 0))
(assert (= (+ (* i6 (- 1)) it6) 0))
(assert (= (+ it7 (* i7 (- 1))) 0))
(assert (let ((a!1 (+ (+ it7 (* it81 (+ it190 (- 1)) (- 2)))
              (* it160 (- 2))
              (* it81 (- 2))))
      (a!2 (> (+ (+ it7 (* it81 (- 2))) 2) 0))
      (a!3 (+ (+ it7 (* it81 (+ it190 (- 1)) (- 2))) (* it81 (- 2))))
      (a!4 (> (+ (+ it7 (* it81 (- 2))) 1) 0))
      (a!5 (> (+ (+ it7 (* it160 (- 2)) (* it81 (- 2))) 2) 0))
      (a!6 (+ (+ it7 (* it81 (+ it190 (- 1)) (- 2))) (- 1)))
      (a!7 (> (+ (+ it7 (* it160 (- 2)) (* it81 (- 2))) 3) 0)))
  (and (> (+ a!1 2) 0)
       (>= (+ it1 (- 2)) 0)
       a!2
       (>= (+ (* it1 (- 1)) 2) 0)
       (> it7 0)
       (> (+ a!1 3) 0)
       (> (+ a!3 1) 0)
       a!4
       a!5
       (> a!6 0)
       (>= (+ it81 (- 1)) 0)
       (> (+ a!3 2) 0)
       (> (+ it7 (- 1)) 0)
       a!7
       (>= (+ it160 (- 1)) 0)
       (>= (+ it190 (- 1)) 0))))
(assert (= (+ (* it1 (- 1)) it193) 0))
(assert (= (+ (* it190 it160 (- 2)) (* it2 (- 1)) (* it190 it81 (- 4)) it194) 0))
(assert (= (+ (* it7 (- 1))
      (* it81 (+ it190 (- 1)) 2)
      it195
      (* it160 2)
      (* it81 2)
      (- 1))
   0))
(assert (let ((a!1 (+ 0 (+ it7 (* it81 (+ it190 (- 1)) (- 2)) (* it81 (- 2)) 1))))
  (= (+ (* a!1 (exp (- 1) it160) (+ 0 (- 2))) (+ 0 it196)) (+ 0 0))))
(assert (let ((a!1 (+ 0 (+ it7 (* it81 (+ it190 (- 1)) (- 2)) (* it81 (- 2)) 1))))
  (= (+ (* a!1 (exp (- 1) it160) (+ 0 (- 3))) (+ 0 it197)) (+ 0 0))))
(assert (let ((a!1 (+ it7 (* (* it81 (+ it190 (- 1))) (- 2)) (* it81 (- 2)) 1))
      (a!2 (+ 0 (* (* it81 (+ it190 (- 1))) 6))))
  (= (+ (* (+ 0 a!1) (exp it160 2) (+ 0 12))
        (+ 0 (* it7 (- 3)))
        a!2
        (+ 0 (* a!1 it160 (- 6)))
        (+ 0 (* it198 3))
        (* (exp it160 2) (+ 0 6))
        (+ 0 (* it160 (- 1)))
        (* (exp a!1 2) (+ 0 it160) (+ 0 (- 6)))
        (* (exp it160 3) (+ 0 (- 8)))
        (+ 0 (* it81 6))
        (+ 0 (- 6)))
     (+ 0 0))))
(assert (= (+ (* it7 (- 1)) it199 (* it190 it81 2)) 0))
(assert (let ((a!1 (> (+ (+ (* it202 (- 2)) it199) 1) 0))
      (a!2 (> (+ (+ (* it202 (- 2)) it199) 2) 0)))
  (and (> it199 0)
       (>= (+ it202 (- 1)) 0)
       (>= (+ it193 (- 2)) 0)
       a!1
       (>= (+ (* it193 (- 1)) 2) 0)
       a!2
       (> (+ it199 (- 1)) 0))))
(assert (= (+ it218 (* it193 (- 1))) 0))
(assert (= (+ (* it202 (- 4)) it219 (* it194 (- 1))) 0))
(assert (= (+ (* it202 2) (* it199 (- 1)) it220 (- 1)) 0))
(assert (= (+ it221 (* it202 4) (* it199 (- 2)) (- 2)) 0))
(assert (= (+ (* it202 6) it222 (* it199 (- 3)) (- 3)) 0))
(assert (= (+ (* it202 2) (* it199 (- 1)) it223 (- 2)) 0))
(assert (= (+ it224 (* it202 2) (* it199 (- 1))) 0))
(assert (let ((a!1 (> (+ (+ (* it201 (- 2)) it220) 1) 0))
      (a!2 (> (+ (+ (* it201 (- 2)) it220) 2) 0)))
  (and (>= (+ it218 (- 2)) 0)
       (>= (+ (* it218 (- 1)) 2) 0)
       (>= (+ it201 (- 1)) 0)
       a!1
       a!2)))
(assert (= (+ (* it218 (- 1)) it255) 0))
(assert (= (+ it256 (* it201 (- 2)) (* it219 (- 1))) 0))
(assert (= (+ (* it201 2) it257 (* it220 (- 1))) 0))
(assert (= (+ (* (+ 0 it221) (exp (- 1) it201) (+ 0 (- 1))) (+ 0 it258))
   (+ 0 0)))
(assert (= (+ (+ 0 it259) (* (exp (- 1) it201) (+ 0 it222) (+ 0 (- 1))))
   (+ 0 0)))
(assert (= (+ (+ 0 (* it201 (- 1)))
      (* (exp it201 2) (+ 0 it220) (+ 0 12))
      (+ 0 (* it260 3))
      (+ 0 (* it201 it220 (- 6)))
      (* (exp it201 2) (+ 0 6))
      (* (+ 0 it201) (exp it220 2) (+ 0 (- 6)))
      (* (exp it201 3) (+ 0 (- 8)))
      (+ 0 (* it223 (- 3))))
   (+ 0 0)))
(assert (= (+ (* it224 (- 1)) it261) 0))
(assert (and (> (+ it257 (- 1)) 0)
     (>= (+ (* it255 (- 1)) 2) 0)
     (>= (+ it255 (- 2)) 0)
     (> it257 0)
     (= 2 0)))
(check-sat)
